(set-option :produce-models true)
(set-logic QF_UF)
(declare-fun p23() Bool)
(declare-fun p18() Bool)
(declare-fun p22() Bool)
(declare-fun p11() Bool)
(declare-fun p43() Bool)
(declare-fun p33() Bool)
(declare-fun p9() Bool)
(declare-fun p31() Bool)
(declare-fun p39() Bool)
(declare-fun p42() Bool)
(declare-fun p19() Bool)
(declare-fun p6() Bool)
(declare-fun p4() Bool)
(declare-fun p16() Bool)
(declare-fun p21() Bool)
(declare-fun p37() Bool)
(declare-fun p46() Bool)
(declare-fun p26() Bool)
(declare-fun p40() Bool)
(declare-fun p30() Bool)
(declare-fun p41() Bool)
(declare-fun p17() Bool)
(declare-fun p10() Bool)
(declare-fun p48() Bool)
(declare-fun p14() Bool)
(declare-fun p15() Bool)
(declare-fun p34() Bool)
(declare-fun p20() Bool)
(declare-fun p8() Bool)
(declare-fun p1() Bool)
(declare-fun p47() Bool)
(declare-fun p36() Bool)
(declare-fun p45() Bool)
(declare-fun p29() Bool)
(declare-fun p28() Bool)
(declare-fun p2() Bool)
(declare-fun p7() Bool)
(declare-fun p38() Bool)
(declare-fun p35() Bool)
(declare-fun p0() Bool)
(declare-fun p5() Bool)
(declare-fun p32() Bool)
(declare-fun p44() Bool)
(declare-fun p12() Bool)
(declare-fun p24() Bool)
(declare-fun p13() Bool)
(declare-fun p25() Bool)
(declare-fun p49() Bool)
(declare-fun p3() Bool)
(declare-fun p27() Bool)
(assert
(and (or p23 p18 p22) (or (not p11) p43 (not p33)) (or p9 p31 (not p39)) (or (not p42) (not p19) (not p6)) (or p4 (not p16) p21) (or (not p37) (not p6) p46) (or (not p26) p40 p30) (or p41 p17 (not p10)) (or (not p48) (not p16) (not p17)) (or (not p14) p15 p21) (or (not p34) (not p20) p42) (or p16 (not p8) (not p41)) (or p1 (not p47) p41) (or p31 (not p18) p16) (or p36 (not p45) p8) (or p30 (not p23) p41) (or p29 p4 (not p20)) (or (not p16) p34 p28) (or (not p2) p7 (not p38)) (or p20 (not p26) p15) (or (not p17) p8 p35) (or (not p35) (not p47) (not p19)) (or p34 (not p10) p22) (or p9 p18 (not p23)) (or p6 p43 p43) (or p22 p0 p29) (or (not p6) p38 p4) (or p43 p37 p28) (or (not p10) p11 (not p1)) (or p15 (not p7) (not p4)) (or (not p18) p22 (not p5)) (or p32 p21 p29) (or p22 p0 (not p15)) (or (not p32) (not p4) p21) (or p45 p44 (not p26)) (or (not p2) p12 p24) (or (not p9) p34 p38) (or (not p21) (not p44) p0) (or p6 p29 p0) (or p13 p25 (not p34)) (or (not p17) (not p25) p17) (or (not p10) p45 (not p47)) (or (not p15) (not p16) (not p44)) (or (not p5) p23 (not p14)) (or p15 (not p12) (not p42)) (or p13 p49 p35) (or (not p21) p29 p25) (or p19 p25 (not p32)) (or (not p33) (not p3) (not p28)) (or (not p6) (not p16) (not p39)) (or p37 p7 p46) (or p10 (not p9) p37) (or p32 (not p24) (not p49)) (or (not p8) p39 p48) (or p35 (not p4) (not p5)) (or (not p26) p49 p28) (or p15 p31 p41) (or p30 (not p45) p1) (or p9 p7 (not p25)) (or (not p49) (not p19) p45) (or p40 p14 (not p39)) (or (not p11) (not p39) (not p1)) (or (not p32) (not p13) (not p9)) (or (not p33) p14 (not p35)) (or p9 (not p40) p33) (or p28 p1 p44) (or p34 (not p24) p49) (or (not p14) (not p36) p45) (or (not p11) (not p29) (not p49)) (or p47 p23 (not p28)) (or p42 p21 (not p16)) (or (not p44) (not p4) (not p29)) (or p3 (not p10) p24) (or (not p39) p46 (not p38)) (or (not p33) p24 p13) (or (not p14) (not p42) (not p9)) (or (not p31) (not p49) (not p41)) (or (not p25) p10 (not p45)) (or (not p48) p42 p14) (or (not p10) p3 p48) (or (not p34) p26 p8) (or p0 (not p7) p34) (or (not p16) (not p45) p44) (or p33 p24 p21) (or (not p27) (not p9) p12) (or (not p13) p26 p15) (or p40 p38 p16) (or (not p43) p29 p44) (or (not p17) p37 p30) (or p42 (not p11) p45) (or p9 (not p23) p43) (or (not p43) p30 p39) (or (not p40) p36 p24) (or p47 (not p20) p44) (or (not p10) (not p23) p48) (or p26 (not p45) p7) (or (not p49) (not p10) p42) (or (not p10) p37 p18) (or (not p21) (not p24) (not p22)) (or p36 p8 (not p29)) (or p47 p14 (not p49)) (or (not p6) (not p36) (not p15)) (or p28 p8 (not p38)) (or p21 (not p24) p48) (or p41 p8 p22) (or (not p4) (not p10) p45) (or p31 (not p20) p12) (or p20 p42 (not p32)) (or (not p42) (not p35) (not p15)) (or p8 p27 p3) (or (not p18) (not p17) p20) (or (not p15) (not p30) p2) (or (not p32) (not p13) p41) (or (not p1) p19 p41) (or p48 (not p26) p11) (or p0 (not p43) p13) (or (not p18) (not p43) p17) (or (not p0) p47 p27) (or (not p40) (not p10) (not p41)) (or p4 p30 p14) (or (not p25) (not p15) (not p6)) (or p34 (not p12) p7) (or (not p19) (not p17) p28) (or (not p9) p10 (not p1)) (or (not p12) p29 p8) (or p25 p13 (not p15)) (or (not p20) p12 p20) (or (not p48) (not p34) (not p32)) (or (not p37) (not p48) (not p8)) (or p12 (not p14) p3) (or p0 (not p9) (not p7)) (or (not p49) p0 p24) (or (not p9) p8 (not p15)) (or (not p14) p40 p18) (or p42 p28 p43) (or (not p28) p7 (not p44)) (or p2 (not p1) p39) (or (not p28) (not p6) (not p44)) (or (not p3) p23 (not p20)) (or (not p12) (not p31) (not p2)) (or p28 p37 (not p27)) (or p2 p3 (not p9)) (or (not p9) p34 (not p9)) (or (not p48) (not p40) p16) (or (not p4) (not p19) p23) (or p35 p34 (not p8)) (or p16 (not p10) (not p19)) (or (not p16) (not p13) p39) (or p12 p22 (not p39)) (or p39 (not p23) (not p14)) (or (not p38) p45 p18) (or p27 (not p24) p32) (or p18 p21 p41) (or (not p37) (not p39) (not p45)) (or (not p36) (not p45) (not p30)) (or p32 p29 p27) (or (not p40) p10 p18) (or p3 (not p10) p39) (or (not p5) (not p49) p45) (or (not p44) p21 (not p19)) (or (not p4) p29 (not p2)) (or (not p41) p24 (not p6)) (or p9 p2 (not p3)) (or (not p5) p0 (not p47)) (or p29 (not p17) (not p22)) (or (not p23) (not p35) p12) (or (not p33) p36 (not p40)) (or (not p15) (not p0) (not p12)) (or p38 p30 p25) (or (not p19) (not p34) (not p7)) (or (not p45) (not p13) p26) (or (not p3) (not p40) (not p46)) (or p15 (not p21) (not p1)) (or (not p35) (not p19) p42) (or p5 p37 p13) (or (not p25) (not p27) (not p25)) (or (not p47) (not p34) (not p17)) (or (not p25) p38 (not p5)) (or (not p2) (not p40) (not p20)) (or p47 p33 (not p39)) (or (not p34) (not p14) p11) (or p16 (not p5) (not p11)) (or p34 p7 p42) (or (not p36) p12 p3) (or (not p19) (not p0) (not p19)) (or (not p47) (not p48) (not p22)) (or (not p4) (not p33) p16) (or p15 (not p0) (not p4)) (or p42 p34 p36) (or (not p36) p38 p35) (or (not p48) (not p29) p11) (or (not p25) p48 (not p35)) (or p27 (not p32) p22) (or p12 p20 p39) (or (not p17) (not p34) (not p3)) (or (not p43) (not p23) p10) (or (not p45) p9 p13) (or (not p24) (not p18) (not p32)) (or p43 p14 p41) (or p23 p34 (not p27)) (or (not p12) p10 p3) (or p24 p31 p23) (or p26 (not p31) p37) (or (not p42) p36 (not p26)) (or p37 p47 p43) (or p28 (not p44) p17) (or p16 (not p11) (not p11)) (or (not p6) p46 p20) (or (not p2) (not p39) (not p9)) (or (not p48) (not p34) (not p21)))
)
(check-sat)
(get-model)
